objective value:                                    2
lambda[1,18]*                                       1 	(obj:2)
lambda[0,30]*                                       5 	(obj:0)
lambda[1,29]*                                       5 	(obj:0)
lambda[1,30]*                                       4 	(obj:0)
lambda[0,35]*                                       3 	(obj:0)
lambda[0,36]*                                       1 	(obj:0)
lambda[0,37]*                                       1 	(obj:0)
